30   435
183
120 178 131 50 52 121 131 154 119 34 116 175 155 100 41 68 106 63 96 144 45 139 30 57 174 110 157 148 165 1 2 57
1 3 67
1 4 201
1 5 19
1 6 234
1 7 50
1 8 266
1 9 294
1 10 246
1 11 10
1 12 61
1 13 170
1 14 93
1 15 266
1 16 50
1 17 51
1 18 18
1 19 51
1 20 13
1 21 25
1 22 113
1 23 290
1 24 209
1 25 224
1 26 268
1 27 295
1 28 93
1 29 181
1 30 286
2 3 216
2 4 266
2 5 58
2 6 69
2 7 48
2 8 142
2 9 112
2 10 121
2 11 11
2 12 254
2 13 290
2 14 27
2 15 160
2 16 281
2 17 138
2 18 103
2 19 41
2 20 127
2 21 75
2 22 62
2 23 288
2 24 86
2 25 134
2 26 78
2 27 112
2 28 120
2 29 202
2 30 62
3 4 206
3 5 281
3 6 207
3 7 196
3 8 108
3 9 251
3 10 269
3 11 34
3 12 63
3 13 178
3 14 61
3 15 250
3 16 92
3 17 218
3 18 93
3 19 294
3 20 127
3 21 292
3 22 118
3 23 201
3 24 263
3 25 227
3 26 246
3 27 96
3 28 177
3 29 106
3 30 92
4 5 115
4 6 284
4 7 201
4 8 274
4 9 243
4 10 180
4 11 239
4 12 233
4 13 274
4 14 54
4 15 169
4 16 232
4 17 284
4 18 300
4 19 71
4 20 69
4 21 261
4 22 286
4 23 185
4 24 291
4 25 119
4 26 208
4 27 18
4 28 226
4 29 271
4 30 14
5 6 207
5 7 158
5 8 275
5 9 88
5 10 16
5 11 64
5 12 92
5 13 214
5 14 239
5 15 117
5 16 175
5 17 81
5 18 257
5 19 216
5 20 216
5 21 174
5 22 164
5 23 200
5 24 265
5 25 29
5 26 250
5 27 203
5 28 104
5 29 207
5 30 291
6 7 99
6 8 213
6 9 82
6 10 31
6 11 178
6 12 55
6 13 46
6 14 122
6 15 211
6 16 294
6 17 109
6 18 197
6 19 174
6 20 280
6 21 188
6 22 191
6 23 57
6 24 271
6 25 269
6 26 90
6 27 80
6 28 85
6 29 36
6 30 264
7 8 155
7 9 258
7 10 271
7 11 300
7 12 74
7 13 25
7 14 81
7 15 227
7 16 103
7 17 184
7 18 71
7 19 250
7 20 154
7 21 216
7 22 20
7 23 137
7 24 286
7 25 275
7 26 30
7 27 223
7 28 11
7 29 190
7 30 63
8 9 195
8 10 121
8 11 86
8 12 208
8 13 293
8 14 54
8 15 58
8 16 222
8 17 286
8 18 10
8 19 203
8 20 104
8 21 195
8 22 210
8 23 195
8 24 210
8 25 271
8 26 157
8 27 188
8 28 88
8 29 67
8 30 90
9 10 130
9 11 188
9 12 293
9 13 28
9 14 221
9 15 186
9 16 111
9 17 87
9 18 167
9 19 59
9 20 255
9 21 106
9 22 263
9 23 272
9 24 29
9 25 55
9 26 64
9 27 232
9 28 240
9 29 262
9 30 215
10 11 43
10 12 160
10 13 268
10 14 78
10 15 117
10 16 88
10 17 23
10 18 226
10 19 103
10 20 253
10 21 279
10 22 168
10 23 127
10 24 141
10 25 291
10 26 36
10 27 224
10 28 81
10 29 148
10 30 284
11 12 22
11 13 127
11 14 203
11 15 72
11 16 193
11 17 157
11 18 101
11 19 40
11 20 106
11 21 174
11 22 182
11 23 251
11 24 118
11 25 277
11 26 147
11 27 135
11 28 121
11 29 112
11 30 165
12 13 76
12 14 262
12 15 56
12 16 279
12 17 129
12 18 107
12 19 102
12 20 47
12 21 147
12 22 16
12 23 102
12 24 30
12 25 121
12 26 144
12 27 173
12 28 173
12 29 10
12 30 293
13 14 39
13 15 228
13 16 91
13 17 258
13 18 71
13 19 146
13 20 103
13 21 119
13 22 80
13 23 283
13 24 166
13 25 50
13 26 63
13 27 205
13 28 238
13 29 244
13 30 259
14 15 39
14 16 175
14 17 200
14 18 264
14 19 21
14 20 157
14 21 150
14 22 268
14 23 268
14 24 300
14 25 173
14 26 84
14 27 239
14 28 109
14 29 135
14 30 279
15 16 209
15 17 83
15 18 231
15 19 292
15 20 36
15 21 96
15 22 204
15 23 177
15 24 251
15 25 185
15 26 209
15 27 232
15 28 230
15 29 150
15 30 248
16 17 125
16 18 99
16 19 12
16 20 59
16 21 16
16 22 189
16 23 211
16 24 94
16 25 273
16 26 171
16 27 50
16 28 72
16 29 96
16 30 134
17 18 63
17 19 29
17 20 230
17 21 140
17 22 287
17 23 60
17 24 164
17 25 43
17 26 107
17 27 212
17 28 12
17 29 131
17 30 122
18 19 104
18 20 139
18 21 38
18 22 235
18 23 227
18 24 88
18 25 68
18 26 75
18 27 80
18 28 292
18 29 75
18 30 219
19 20 64
19 21 128
19 22 94
19 23 82
19 24 79
19 25 283
19 26 47
19 27 72
19 28 198
19 29 103
19 30 94
20 21 277
20 22 96
20 23 269
20 24 54
20 25 134
20 26 83
20 27 253
20 28 60
20 29 70
20 30 256
21 22 194
21 23 159
21 24 235
21 25 87
21 26 118
21 27 182
21 28 85
21 29 34
21 30 18
22 23 190
22 24 47
22 25 98
22 26 98
22 27 192
22 28 299
22 29 225
22 30 66
23 24 282
23 25 54
23 26 22
23 27 25
23 28 215
23 29 162
23 30 129
24 25 13
24 26 299
24 27 87
24 28 295
24 29 198
24 30 151
25 26 141
25 27 224
25 28 28
25 29 167
25 30 44
26 27 89
26 28 78
26 29 195
26 30 14
27 28 100
27 29 231
27 30 27
28 29 211
28 30 162
29 30 188
